# This file was generated by FitSNAP.
# Hash: 9da21cbeea63a8650f4f060c28a57c28

pair_style snap
pair_coeff * * Ge_pot.snapcoeff Ge_pot.snapparam Ge