# This file was generated by FitSNAP.
# Hash: dc9a097f87ec9266fbf99b83d03fd5f1

pair_style snap
pair_coeff * * Ge_pot.snapcoeff Ge_pot.snapparam Ge