# This file was generated by FitSNAP.
# Hash: da0ccb7f8924fae13f73fda8bff6f156

pair_style snap
pair_coeff * * Si_pot.snapcoeff Si_pot.snapparam Si