# This file was generated by FitSNAP.
# Hash: d2c64b7ec258f48892f84507bd77a6a5

pair_style snap
pair_coeff * * Si_pot.snapcoeff Si_pot.snapparam Si