# This file was generated by FitSNAP.
# Hash: a627729906ed6e74a9cf761b9b4e678a

pair_style snap
pair_coeff * * Cu_pot.snapcoeff Cu_pot.snapparam Cu