# This file was generated by FitSNAP.
# Hash: 64c458f075f53c2cbff394ec2fe6ff69

pair_style snap
pair_coeff * * Ge_pot.snapcoeff Ge_pot.snapparam Ge