# This file was generated by FitSNAP.
# Hash: fc1cddcd93cd75682c0144e8e43a5ff4

pair_style snap
pair_coeff * * Ge_pot.snapcoeff Ge_pot.snapparam Ge