# This file was generated by FitSNAP.
# Hash: 2e02755a3ba26ee584728ef4f541a608

pair_style snap
pair_coeff * * Ni_pot.snapcoeff Ni_pot.snapparam Ni