# This file was generated by FitSNAP.
# Hash: 370f64916b8b70bb5b1c9746f5d4fa78

pair_style snap
pair_coeff * * Ge_pot.snapcoeff Ge_pot.snapparam Ge