# This file was generated by FitSNAP.
# Hash: 74c13d5f73188af932ed129517d96054

pair_style snap
pair_coeff * * Si_pot.snapcoeff Si_pot.snapparam Si