# This file was generated by FitSNAP.
# Hash: 4085383141879f036b9912f5b7ff766f

pair_style snap
pair_coeff * * Si_pot.snapcoeff Si_pot.snapparam Si