# This file was generated by FitSNAP.
# Hash: 32573b6e167495a157391086a82971fa

pair_style snap
pair_coeff * * Li_pot.snapcoeff Li_pot.snapparam Li