# This file was generated by FitSNAP.
# Hash: d009d57b8714470919fb9fdf9d1f9146

pair_style snap
pair_coeff * * Si_pot.snapcoeff Si_pot.snapparam Si