# This file was generated by FitSNAP.
# Hash: 8e7ad3bd63ec80262d0e0267d0e674a9

pair_style snap
pair_coeff * * Ge_pot.snapcoeff Ge_pot.snapparam Ge