# This file was generated by FitSNAP.
# Hash: e6b20db1722c487dd4744bf53555ee40

pair_style snap
pair_coeff * * Ge_pot.snapcoeff Ge_pot.snapparam Ge