# This file was generated by FitSNAP.
# Hash: 070d1db42154fee685483cdf60b70d8e

pair_style snap
pair_coeff * * Mo_pot.snapcoeff Mo_pot.snapparam Mo