# This file was generated by FitSNAP.
# Hash: 236579d4bc0c6813f14072fc48d96e82

pair_style snap
pair_coeff * * Si_pot.snapcoeff Si_pot.snapparam Si