# This file was generated by FitSNAP.
# Hash: ed872faf04fc629a4cbac700f6b31e99

pair_style snap
pair_coeff * * Si_pot.snapcoeff Si_pot.snapparam Si